% File represents an instance of a Composite Structure problem to be solved by a CP framework
% Created on 2025-03-26 10:41:25.938
T = 54;
n = 16;
m = 24;
edges = [(1, 2),
(5, 6),
(10, 9),
(14, 13),
(3, 2),
(7, 6),
(10, 11),
(14, 15),
(4, 3),
(8, 7),
(12, 11),
(15, 16),
(5, 1),
(5, 9),
(13, 9),
(2, 6),
(10, 6),
(14, 10),
(3, 7),
(7, 11),
(15, 11),
(4, 8),
(8, 12),
(12, 16)];
counts = [|10, 12, 10, 14,
|10, 12, 10, 12,
|10, 14, 10, 16,
|12, 14, 12, 16,
|10, 12, 10, 16,
|10, 12, 10, 10,
|10, 12, 10, 14,
|12, 14, 12, 14,
|10, 12, 10, 10,
|10, 12, 10, 12,
|8, 12, 8, 12,
|10, 14, 10, 12,
|10, 18, 10, 10,
|10, 18, 10, 12,
|10, 14, 10, 12,
|10, 14, 10, 10|];
